Version identifier: 22.1.0.0 | 2022-03-09 | 1a383f8ce
CPXPARAM_Threads                                 1
CPXPARAM_MIP_Strategy_VariableSelect             3
CPXPARAM_TimeLimit                               588.61169348099997
1 of 1 MIP starts provided solutions.
MIP start 'm1' defined initial solution with objective 474.0000.
Tried aggregator 1 time.
MIP Presolve eliminated 16 rows and 0 columns.
Reduced MIP has 5003 rows, 10000 columns, and 107684 nonzeros.
Reduced MIP has 10000 binaries, 0 generals, 0 SOSs, and 0 indicators.
Presolve time = 0.07 sec. (53.08 ticks)
Probing time = 0.01 sec. (4.60 ticks)
Tried aggregator 1 time.
Detecting symmetries...
Reduced MIP has 5003 rows, 10000 columns, and 107684 nonzeros.
Reduced MIP has 10000 binaries, 0 generals, 0 SOSs, and 0 indicators.
Presolve time = 0.08 sec. (62.19 ticks)
Probing time = 0.01 sec. (4.60 ticks)
Clique table members: 3489.
MIP emphasis: balance optimality and feasibility.
MIP search method: dynamic search.
Parallel mode: none, using 1 thread.
Root relaxation solution time = 5.58 sec. (5064.50 ticks)

        Nodes                                         Cuts/
   Node  Left     Objective  IInf  Best Integer    Best Bound    ItCnt     Gap

*     0+    0                          474.0000    10000.0000              --- 
      0     0      500.0000  2208      474.0000      500.0000    12234    5.49%
      0     0      500.0000   234      474.0000    Cliques: 7    15163    5.49%
*     0+    0                          500.0000      500.0000             0.00%
      0     0        cutoff            500.0000      500.0000    15163    0.00%
Elapsed time = 62.95 sec. (62576.57 ticks, tree = 0.01 MB, solutions = 2)

Clique cuts applied:  6

Root node processing (before b&c):
  Real time             =   62.95 sec. (62576.97 ticks)
Sequential b&c:
  Real time             =    0.00 sec. (0.00 ticks)
                          ------------
Total (root+branch&cut) =   62.95 sec. (62576.97 ticks)
Primal:	500
Dual:	500
Status:	Optimal
Time:	62.96
Sequence:
	17
	14
	4
	8
	14
	4
	17
	7
	13
	8
	5
	4
	18
	2
	4
	18
	2
	5
	1
	11
	15
	1
	0
	15
	10
	0
	15
	10
	0
	15
	10
	0
	15
	10
	0
	5
	9
	11
	13
	9
	11
	13
	9
	11
	13
	9
	11
	13
	9
	11
	13
	9
	0
	16
	9
	0
	16
	9
	6
	11
	9
	13
	11
	9
	4
	11
	9
	13
	11
	9
	4
	11
	15
	1
	11
	15
	1
	11
	2
	19
	11
	2
	19
	7
	12
	1
	14
	12
	19
	16
	12
	1
	7
	12
	1
	5
	12
	10
	13
	0
	10
	15
	0
	10
	15
	0
	10
	15
	0
	10
	15
	0
	10
	4
	12
	19
	16
	12
	1
	7
	12
	1
	14
	12
	19
	7
	0
	1
	15
	11
	1
	15
	11
	1
	15
	11
	1
	2
	11
	1
	3
	11
	9
	13
	11
	9
	6
	16
	0
	9
	14
	6
	17
	7
	13
	8
	16
	3
	17
	14
	13
	1
	11
	15
	1
	11
	15
	1
	14
	0
	9
	16
	0
	9
	16
	0
	9
	13
	0
	10
	15
	0
	10
	15
	4
	10
	12
	13
	1
	12
	6
	10
	2
	3
	18
	2
	4
	18
	2
	4
	18
	2
	3
	18
	2
	4
	10
	12
	6
	1
	12
	16
	19
	12
	7
	19
	12
	7
	19
	12
	4
	10
	15
	0
	10
	2
	3
	18
	2
	4
	18
	2
	5
	14
	8
	13
	7
	8
	6
	16
	8
	13
	7
	17
	3
	14
	17
	3
	7
	8
	6
	14
	12
	1
	16
	12
	19
	7
	12
	19
	14
	12
	1
	16
	12
	19
	7
	0
	9
	4
	11
	19
	2
	11
	19
	5
	12
	10
	4
	2
	18
	3
	4
	18
	2
	4
	18
	2
	3
	18
	4
	2
	18
	3
	2
	18
	3
	2
	18
	3
	2
	18
	3
	2
	18
	3
	2
	18
	3
	5
	8
	16
	4
	8
	14
	5
	8
	14
	5
	8
	7
	4
	17
	7
	13
	9
	7
	0
	19
	2
	0
	10
	15
	0
	10
	13
	12
	1
	16
	12
	19
	14
	12
	19
	7
	12
	19
	16
	12
	19
	16
	12
	1
	16
	12
	19
	7
	12
	1
	14
	13
	8
	7
	5
	8
	14
	5
	8
	14
	3
	17
	7
	13
	17
	7
	6
	17
	4
	14
	17
	3
	16
	8
	5
	7
	17
	6
	7
	8
	5
	4
	18
	3
	4
	8
	5
	7
	8
	5
	7
	17
	3
	7
	17
	3
	16
	8
	5
	14
	17
	6
	5
	8
	16
	13
	8
	14
	5
	8
	4
	16
	8
	3
	14
	17
	13
	16
	8
	13
	7
	17
	13
	7
	8
	5
	7
	17
	13
	16
	8
	6
	14
	17
	4
	16
	8
	6
	7
	8
	13
	14
	17
	6
	16
	8
	5
	7
	9
	13
	11
	9
	13
	11
	9
	13
	11
	9
	13
	7
	8
	6
	14
	17
	4
	14
	17
	6
	16
	8
	5
	7
	17
	6
	14
	17
	6
	16
	8
	4
	7
	17
	4
	5
	8
	16
	6
	8
	16
	4
	17
